9794.72,62.1,77.03
10632.7,57.2,70.96
11327.44,53.69,66.61
11242.03,54.1,67.11
12782.05,47.58,59.03
10869.8,55.95,69.41
11633.25,52.28,64.86
10794.53,56.34,69.9
11151.14,54.54,67.66
10581.71,57.48,71.3
9787.87,62.14,77.08
10847.46,56.07,69.55
10993.86,55.32,68.63
10286.02,59.13,73.35
10419.07,58.38,72.41
10620.18,57.27,71.04
11370.02,53.49,66.36
10558.1,57.61,71.46
11399.75,53.35,66.19
11116.15,54.71,67.87
